<number of tasks>
89

<cycle time>
127

<task times>
1 28
2 17
3 7
4 10
5 12
6 16
7 13
8 8
9 13
10 24
11 16
12 24
13 12
14 20
15 22
16 22
17 22
18 47
19 6
20 12
21 6
22 22
23 7
24 14
25 68
26 15
27 8
28 74
29 32
30 11
31 18
32 15
33 42
34 27
35 38
36 38
37 26
38 35
39 31
40 8
41 14
42 8
43 8
44 8
45 17
46 7
47 19
48 12
49 24
50 26
51 22
52 14
53 27
54 60
55 4
56 2
57 1
58 9
59 5
60 6
61 7
62 12
63 2
64 11
65 14
66 6
67 21
68 14
69 1
70 6
71 21
72 11
73 14
74 28
75 12
76 11
77 30
78 22
79 14
80 31
81 18
82 16
83 7
84 38
85 8
86 31
87 29
88 12
89 18

<precedence relations>
1,2
2,3
3,4
4,5
4,6
4,7
4,8
4,9
5,10
6,11
7,12
8,18
9,18
10,14
11,12
12,13
13,14
14,15
14,16
15,17
16,54
17,18
18,19
18,20
19,22
20,21
20,28
21,54
22,23
23,24
24,25
25,26
25,27
25,29
26,37
27,33
28,29
29,31
30,54
31,32
32,33
33,34
34,35
35,36
35,37
36,38
37,38
38,39
39,40
39,41
39,42
39,43
40,44
41,53
42,53
43,45
44,52
45,46
46,47
47,48
47,49
49,50
50,51
51,52
52,53
53,68
53,69
53,70
53,71
54,55
55,56
56,57
57,58
57,59
57,60
57,61
57,62
57,63
57,64
57,65
57,66
58,67
59,67
60,67
61,67
62,67
63,67
64,67
65,67
66,67
67,73
68,72
69,72
70,72
71,73
72,78
72,80
73,74
74,75
74,76
75,77
76,81
77,78
78,79
79,81
80,81
81,82
81,84
81,85
82,83
83,86
84,86
85,86
86,87
87,88
87,89

<setup times forward>
1,30:2
2,30:2
3,30:2
4,9:2
4,30:2
5,9:2
5,10:5
5,12:5
5,13:5
5,30:2
6,9:2
6,10:5
6,30:2
7,9:2
7,10:5
7,12:5
7,30:2
8,9:2
8,10:5
8,12:5
8,13:5
8,14:5
8,15:5
8,16:2
8,17:5
8,18:2
8,30:2
9,5:2
9,6:2
9,7:2
9,8:2
9,10:7
9,11:2
9,12:7
9,13:7
9,14:7
9,15:7
9,16:4
9,17:7
9,30:4
10,6:5
10,7:5
10,8:5
10,9:7
10,11:5
10,30:3
11,9:2
11,10:5
11,12:5
11,30:2
12,5:5
12,8:5
12,9:7
12,30:3
13,5:5
13,8:5
13,9:7
13,30:3
14,8:5
14,9:7
14,16:3
14,30:3
15,8:5
15,9:7
15,16:3
15,30:3
16,8:2
16,9:4
16,15:3
16,17:3
16,18:4
16,19:4
16,20:4
16,21:4
16,22:4
16,23:4
16,24:4
16,28:1
16,29:1
16,31:1
16,32:5
16,33:5
16,34:5
16,35:5
16,36:2
16,37:2
16,38:2
16,39:6
16,40:6
16,41:4
16,42:1
16,43:6
16,44:6
16,45:6
16,46:6
16,47:6
16,48:8
16,49:6
16,50:1
16,51:1
16,52:4
16,53:4
16,54:1
16,68:3
16,69:4
16,70:3
16,71:8
16,72:3
16,80:3
17,8:5
17,9:7
17,16:3
17,18:7
17,30:3
18,16:4
18,30:4
19,16:4
19,28:3
19,30:4
19,54:5
19,55:5
19,56:5
19,57:5
19,63:5
19,67:4
20,16:4
20,25:4
20,26:4
20,27:4
20,28:3
20,30:4
21,16:4
21,25:4
21,26:4
21,27:4
21,28:3
21,29:3
21,30:4
21,31:3
21,32:1
21,33:1
21,34:1
21,35:1
21,36:2
21,37:2
21,38:2
21,39:2
21,40:2
21,42:5
21,43:2
21,44:2
21,45:2
21,46:2
21,47:2
21,48:4
21,49:2
21,50:5
21,51:5
21,54:5
21,68:1
21,70:1
21,71:4
21,72:1
21,80:1
22,16:4
22,28:3
22,30:4
22,54:5
22,55:5
22,56:5
22,57:5
22,63:5
22,67:4
23,16:4
23,28:3
23,30:4
23,54:5
23,55:5
23,56:5
23,57:5
23,63:5
23,67:4
24,16:4
24,25:4
24,28:3
24,30:4
24,54:5
24,55:5
24,56:5
24,57:5
24,63:5
24,67:4
25,20:4
25,21:4
25,28:1
25,29:1
25,54:1
25,55:1
25,56:1
25,57:1
25,58:4
25,59:4
25,60:4
25,61:4
25,62:4
25,63:1
25,64:4
25,65:4
25,66:4
25,67:8
26,20:4
26,21:4
26,28:1
26,29:1
26,31:1
26,32:5
26,33:5
26,34:5
26,35:5
26,36:2
26,37:2
26,54:1
26,55:1
26,56:1
26,57:1
26,58:4
26,59:4
26,60:4
26,61:4
26,62:4
26,63:1
26,64:4
26,65:4
26,66:4
26,67:8
27,20:4
27,21:4
27,28:1
27,29:1
27,31:1
27,32:5
27,33:5
27,54:1
27,55:1
27,56:1
27,57:1
27,58:4
27,59:4
27,60:4
27,61:4
27,62:4
27,63:1
27,64:4
27,65:4
27,66:4
27,67:8
28,16:1
28,19:3
28,21:3
28,22:3
28,23:3
28,24:3
28,25:1
28,26:1
28,27:1
28,30:1
28,54:2
28,55:2
28,56:2
28,57:2
28,58:3
28,59:3
28,60:3
28,61:3
28,62:3
28,63:2
28,64:3
28,65:3
28,66:3
28,67:7
29,16:1
29,21:3
29,26:1
29,27:1
29,30:1
29,54:2
29,55:2
29,56:2
29,57:2
29,58:3
29,59:3
29,60:3
29,61:3
29,62:3
29,63:2
29,64:3
29,65:3
29,66:3
29,67:7
30,1:2
30,2:2
30,3:2
30,4:2
30,5:2
30,6:2
30,7:2
30,8:2
30,9:4
30,10:3
30,11:2
30,12:3
30,13:3
30,14:3
30,15:3
30,17:3
30,18:4
30,19:4
30,20:4
30,21:4
30,22:4
30,23:4
30,24:4
30,28:1
30,29:1
30,31:1
30,32:5
30,33:5
30,34:5
30,35:5
30,36:2
30,37:2
30,38:2
30,39:6
30,40:6
30,41:4
30,42:1
30,43:6
30,44:6
30,45:6
30,46:6
30,47:6
30,48:8
30,49:6
30,50:1
30,51:1
30,52:4
30,53:4
30,54:1
30,68:3
30,69:4
30,70:3
30,71:8
30,72:3
30,80:3
31,16:1
31,21:3
31,26:1
31,27:1
31,30:1
31,32:4
31,54:2
31,55:2
31,56:2
31,57:2
31,58:3
31,59:3
31,60:3
31,61:3
31,62:3
31,63:2
31,64:3
31,65:3
31,66:3
31,67:7
32,16:5
32,21:1
32,26:5
32,27:5
32,30:5
32,54:6
32,55:6
32,56:6
32,57:6
32,58:1
32,59:1
32,60:1
32,61:1
32,62:1
32,63:6
32,64:1
32,65:1
32,66:1
32,67:3
33,16:5
33,21:1
33,26:5
33,30:5
33,54:6
33,55:6
33,56:6
33,57:6
33,58:1
33,59:1
33,60:1
33,61:1
33,62:1
33,63:6
33,64:1
33,65:1
33,66:1
33,67:3
34,16:5
34,21:1
34,26:5
34,30:5
34,54:6
34,55:6
34,56:6
34,57:6
34,58:1
34,59:1
34,60:1
34,61:1
34,62:1
34,63:6
34,64:1
34,65:1
34,66:1
34,67:3
35,16:5
35,21:1
35,26:5
35,30:5
35,36:3
35,37:3
35,54:6
35,55:6
35,56:6
35,57:6
35,58:1
35,59:1
35,60:1
35,61:1
35,62:1
35,63:6
35,64:1
35,65:1
35,66:1
35,67:3
36,16:2
36,21:2
36,26:2
36,30:2
36,54:3
36,55:3
36,56:3
36,57:3
36,58:2
36,59:2
36,60:2
36,61:2
36,62:2
36,63:3
36,64:2
36,65:2
36,66:2
36,67:6
37,16:2
37,21:2
37,30:2
37,54:3
37,55:3
37,56:3
37,57:3
37,58:2
37,59:2
37,60:2
37,61:2
37,62:2
37,63:3
37,64:2
37,65:2
37,66:2
37,67:6
38,16:2
38,21:2
38,30:2
38,39:4
38,54:3
38,55:3
38,56:3
38,57:3
38,58:2
38,59:2
38,60:2
38,61:2
38,62:2
38,63:3
38,64:2
38,65:2
38,66:2
38,67:6
39,16:6
39,21:2
39,30:6
39,41:2
39,42:7
39,54:7
39,55:7
39,56:7
39,57:7
39,58:2
39,59:2
39,60:2
39,61:2
39,62:2
39,63:7
39,64:2
39,65:2
39,66:2
39,67:2
40,16:6
40,21:2
40,30:6
40,41:2
40,42:7
40,48:2
40,50:7
40,51:7
40,54:7
40,55:7
40,56:7
40,57:7
40,58:2
40,59:2
40,60:2
40,61:2
40,62:2
40,63:7
40,64:2
40,65:2
40,66:2
40,67:2
41,16:4
41,30:4
41,40:2
41,42:5
41,43:2
41,44:2
41,45:2
41,46:2
41,47:2
41,48:4
41,49:2
41,50:5
41,51:5
41,54:5
41,55:5
41,56:5
41,57:5
41,63:5
41,67:4
42,16:1
42,21:5
42,30:1
42,40:7
42,41:5
42,43:7
42,44:7
42,45:7
42,46:7
42,47:7
42,48:9
42,49:7
42,52:5
42,53:5
42,58:5
42,59:5
42,60:5
42,61:5
42,62:5
42,64:5
42,65:5
42,66:5
42,67:9
43,16:6
43,21:2
43,30:6
43,41:2
43,42:7
43,54:7
43,55:7
43,56:7
43,57:7
43,58:2
43,59:2
43,60:2
43,61:2
43,62:2
43,63:7
43,64:2
43,65:2
43,66:2
43,67:2
44,16:6
44,21:2
44,30:6
44,41:2
44,42:7
44,48:2
44,50:7
44,51:7
44,52:2
44,54:7
44,55:7
44,56:7
44,57:7
44,58:2
44,59:2
44,60:2
44,61:2
44,62:2
44,63:7
44,64:2
44,65:2
44,66:2
44,67:2
45,16:6
45,21:2
45,30:6
45,41:2
45,42:7
45,54:7
45,55:7
45,56:7
45,57:7
45,58:2
45,59:2
45,60:2
45,61:2
45,62:2
45,63:7
45,64:2
45,65:2
45,66:2
45,67:2
46,16:6
46,21:2
46,30:6
46,41:2
46,42:7
46,54:7
46,55:7
46,56:7
46,57:7
46,58:2
46,59:2
46,60:2
46,61:2
46,62:2
46,63:7
46,64:2
46,65:2
46,66:2
46,67:2
47,16:6
47,21:2
47,30:6
47,41:2
47,42:7
47,48:2
47,54:7
47,55:7
47,56:7
47,57:7
47,58:2
47,59:2
47,60:2
47,61:2
47,62:2
47,63:7
47,64:2
47,65:2
47,66:2
47,67:2
48,16:8
48,21:4
48,30:8
48,40:2
48,41:4
48,42:9
48,44:2
48,49:2
48,50:9
48,51:9
48,52:4
48,53:4
48,54:9
48,55:9
48,56:9
48,57:9
48,58:4
48,59:4
48,60:4
48,61:4
48,62:4
48,63:9
48,64:4
48,65:4
48,66:4
48,68:5
48,69:4
48,70:5
48,72:5
48,73:5
48,74:5
48,75:5
48,76:5
48,77:8
48,78:8
48,79:8
48,80:5
48,81:8
48,82:10
48,83:10
48,84:8
48,85:10
48,86:10
48,87:10
48,88:10
48,89:10
49,16:6
49,21:2
49,30:6
49,41:2
49,42:7
49,48:2
49,50:7
49,54:7
49,55:7
49,56:7
49,57:7
49,58:2
49,59:2
49,60:2
49,61:2
49,62:2
49,63:7
49,64:2
49,65:2
49,66:2
49,67:2
50,16:1
50,21:5
50,30:1
50,40:7
50,41:5
50,44:7
50,48:9
50,58:5
50,59:5
50,60:5
50,61:5
50,62:5
50,64:5
50,65:5
50,66:5
50,67:9
51,16:1
51,21:5
51,30:1
51,40:7
51,41:5
51,44:7
51,48:9
51,52:5
51,58:5
51,59:5
51,60:5
51,61:5
51,62:5
51,64:5
51,65:5
51,66:5
51,67:9
52,16:4
52,30:4
52,42:5
52,48:4
52,54:5
52,55:5
52,56:5
52,57:5
52,63:5
52,67:4
53,16:4
53,30:4
53,48:4
53,54:5
53,55:5
53,56:5
53,57:5
53,63:5
53,67:4
53,68:1
53,70:1
53,71:4
54,19:5
54,22:5
54,23:5
54,24:5
54,25:1
54,26:1
54,27:1
54,28:2
54,29:2
54,31:2
54,32:6
54,33:6
54,34:6
54,35:6
54,36:3
54,37:3
54,38:3
54,39:7
54,40:7
54,41:5
54,43:7
54,44:7
54,45:7
54,46:7
54,47:7
54,48:9
54,49:7
54,52:5
54,53:5
54,68:4
54,69:5
54,70:4
54,71:9
54,72:4
54,80:4
55,19:5
55,22:5
55,23:5
55,24:5
55,25:1
55,26:1
55,27:1
55,28:2
55,29:2
55,31:2
55,32:6
55,33:6
55,34:6
55,35:6
55,36:3
55,37:3
55,38:3
55,39:7
55,40:7
55,41:5
55,43:7
55,44:7
55,45:7
55,46:7
55,47:7
55,48:9
55,49:7
55,52:5
55,53:5
55,68:4
55,69:5
55,70:4
55,71:9
55,72:4
55,80:4
56,19:5
56,22:5
56,23:5
56,24:5
56,25:1
56,26:1
56,27:1
56,28:2
56,29:2
56,31:2
56,32:6
56,33:6
56,34:6
56,35:6
56,36:3
56,37:3
56,38:3
56,39:7
56,40:7
56,41:5
56,43:7
56,44:7
56,45:7
56,46:7
56,47:7
56,48:9
56,49:7
56,52:5
56,53:5
56,68:4
56,69:5
56,70:4
56,71:9
56,72:4
56,80:4
57,19:5
57,22:5
57,23:5
57,24:5
57,25:1
57,26:1
57,27:1
57,28:2
57,29:2
57,31:2
57,32:6
57,33:6
57,34:6
57,35:6
57,36:3
57,37:3
57,38:3
57,39:7
57,40:7
57,41:5
57,43:7
57,44:7
57,45:7
57,46:7
57,47:7
57,48:9
57,49:7
57,52:5
57,53:5
57,58:5
57,59:5
57,60:5
57,61:5
57,62:5
57,64:5
57,65:5
57,66:5
57,68:4
57,69:5
57,70:4
57,71:9
57,72:4
57,80:4
58,25:4
58,26:4
58,27:4
58,28:3
58,29:3
58,31:3
58,32:1
58,33:1
58,34:1
58,35:1
58,36:2
58,37:2
58,38:2
58,39:2
58,40:2
58,42:5
58,43:2
58,44:2
58,45:2
58,46:2
58,47:2
58,48:4
58,49:2
58,50:5
58,51:5
58,63:5
58,67:4
58,68:1
58,70:1
58,71:4
58,72:1
58,80:1
59,25:4
59,26:4
59,27:4
59,28:3
59,29:3
59,31:3
59,32:1
59,33:1
59,34:1
59,35:1
59,36:2
59,37:2
59,38:2
59,39:2
59,40:2
59,42:5
59,43:2
59,44:2
59,45:2
59,46:2
59,47:2
59,48:4
59,49:2
59,50:5
59,51:5
59,63:5
59,67:4
59,68:1
59,70:1
59,71:4
59,72:1
59,80:1
60,25:4
60,26:4
60,27:4
60,28:3
60,29:3
60,31:3
60,32:1
60,33:1
60,34:1
60,35:1
60,36:2
60,37:2
60,38:2
60,39:2
60,40:2
60,42:5
60,43:2
60,44:2
60,45:2
60,46:2
60,47:2
60,48:4
60,49:2
60,50:5
60,51:5
60,63:5
60,67:4
60,68:1
60,70:1
60,71:4
60,72:1
60,80:1
61,25:4
61,26:4
61,27:4
61,28:3
61,29:3
61,31:3
61,32:1
61,33:1
61,34:1
61,35:1
61,36:2
61,37:2
61,38:2
61,39:2
61,40:2
61,42:5
61,43:2
61,44:2
61,45:2
61,46:2
61,47:2
61,48:4
61,49:2
61,50:5
61,51:5
61,63:5
61,67:4
61,68:1
61,70:1
61,71:4
61,72:1
61,80:1
62,25:4
62,26:4
62,27:4
62,28:3
62,29:3
62,31:3
62,32:1
62,33:1
62,34:1
62,35:1
62,36:2
62,37:2
62,38:2
62,39:2
62,40:2
62,42:5
62,43:2
62,44:2
62,45:2
62,46:2
62,47:2
62,48:4
62,49:2
62,50:5
62,51:5
62,63:5
62,67:4
62,68:1
62,70:1
62,71:4
62,72:1
62,80:1
63,19:5
63,22:5
63,23:5
63,24:5
63,25:1
63,26:1
63,27:1
63,28:2
63,29:2
63,31:2
63,32:6
63,33:6
63,34:6
63,35:6
63,36:3
63,37:3
63,38:3
63,39:7
63,40:7
63,41:5
63,43:7
63,44:7
63,45:7
63,46:7
63,47:7
63,48:9
63,49:7
63,52:5
63,53:5
63,58:5
63,59:5
63,60:5
63,61:5
63,62:5
63,64:5
63,65:5
63,66:5
63,67:9
63,68:4
63,69:5
63,70:4
63,71:9
63,72:4
63,80:4
64,25:4
64,26:4
64,27:4
64,28:3
64,29:3
64,31:3
64,32:1
64,33:1
64,34:1
64,35:1
64,36:2
64,37:2
64,38:2
64,39:2
64,40:2
64,42:5
64,43:2
64,44:2
64,45:2
64,46:2
64,47:2
64,48:4
64,49:2
64,50:5
64,51:5
64,63:5
64,67:4
64,68:1
64,70:1
64,71:4
64,72:1
64,80:1
65,25:4
65,26:4
65,27:4
65,28:3
65,29:3
65,31:3
65,32:1
65,33:1
65,34:1
65,35:1
65,36:2
65,37:2
65,38:2
65,39:2
65,40:2
65,42:5
65,43:2
65,44:2
65,45:2
65,46:2
65,47:2
65,48:4
65,49:2
65,50:5
65,51:5
65,63:5
65,67:4
65,68:1
65,70:1
65,71:4
65,72:1
65,80:1
66,25:4
66,26:4
66,27:4
66,28:3
66,29:3
66,31:3
66,32:1
66,33:1
66,34:1
66,35:1
66,36:2
66,37:2
66,38:2
66,39:2
66,40:2
66,42:5
66,43:2
66,44:2
66,45:2
66,46:2
66,47:2
66,48:4
66,49:2
66,50:5
66,51:5
66,63:5
66,67:4
66,68:1
66,70:1
66,71:4
66,72:1
66,80:1
67,19:4
67,22:4
67,23:4
67,24:4
67,25:8
67,26:8
67,27:8
67,28:7
67,29:7
67,31:7
67,32:3
67,33:3
67,34:3
67,35:3
67,36:6
67,37:6
67,38:6
67,39:2
67,40:2
67,41:4
67,42:9
67,43:2
67,44:2
67,45:2
67,46:2
67,47:2
67,49:2
67,50:9
67,51:9
67,52:4
67,53:4
67,68:5
67,69:4
67,70:5
67,72:5
67,73:5
67,80:5
68,16:3
68,21:1
68,30:3
68,48:5
68,54:4
68,55:4
68,56:4
68,57:4
68,58:1
68,59:1
68,60:1
68,61:1
68,62:1
68,63:4
68,64:1
68,65:1
68,66:1
68,67:5
68,69:1
68,71:5
68,77:3
69,16:4
69,30:4
69,48:4
69,54:5
69,55:5
69,56:5
69,57:5
69,63:5
69,67:4
69,68:1
69,70:1
69,71:4
69,72:1
69,73:1
69,74:1
69,75:1
69,76:1
69,77:4
70,16:3
70,21:1
70,30:3
70,48:5
70,54:4
70,55:4
70,56:4
70,57:4
70,58:1
70,59:1
70,60:1
70,61:1
70,62:1
70,63:4
70,64:1
70,65:1
70,66:1
70,67:5
70,69:1
70,71:5
70,77:3
71,16:8
71,21:4
71,30:8
71,54:9
71,55:9
71,56:9
71,57:9
71,58:4
71,59:4
71,60:4
71,61:4
71,62:4
71,63:9
71,64:4
71,65:4
71,66:4
71,68:5
71,69:4
71,70:5
71,72:5
71,73:5
71,80:5
72,16:3
72,21:1
72,30:3
72,48:5
72,54:4
72,55:4
72,56:4
72,57:4
72,58:1
72,59:1
72,60:1
72,61:1
72,62:1
72,63:4
72,64:1
72,65:1
72,66:1
72,67:5
72,71:5
72,77:3
72,78:3
73,48:5
73,69:1
74,48:5
74,69:1
75,48:5
75,69:1
75,77:3
76,48:5
76,69:1
76,77:3
76,78:3
76,79:3
76,81:3
77,48:8
77,68:3
77,69:4
77,70:3
77,72:3
77,76:3
77,80:3
78,48:8
78,76:3
78,80:3
79,48:8
79,76:3
79,80:3
80,16:3
80,21:1
80,30:3
80,48:5
80,54:4
80,55:4
80,56:4
80,57:4
80,58:1
80,59:1
80,60:1
80,61:1
80,62:1
80,63:4
80,64:1
80,65:1
80,66:1
80,67:5
80,71:5
80,77:3
80,78:3
80,79:3
80,81:3
81,48:8
81,82:2
81,85:2
82,48:10
82,84:2
83,48:10
83,84:2
84,48:8
84,82:2
84,83:2
84,85:2
84,86:2
85,48:10
85,84:2
86,48:10
87,48:10
88,48:10
89,48:10

<setup times backward>
5,9:2
6,9:2
7,9:2
8,9:2
10,1:5
10,2:5
10,3:5
10,4:5
10,5:5
10,6:5
10,7:5
10,8:5
10,9:7
10,11:5
10,30:3
11,9:2
12,1:5
12,2:5
12,3:5
12,4:5
12,5:5
12,6:5
12,7:5
12,8:5
12,9:7
12,11:5
12,30:3
13,1:5
13,2:5
13,3:5
13,4:5
13,5:5
13,6:5
13,7:5
13,8:5
13,9:7
13,11:5
13,30:3
14,1:5
14,2:5
14,3:5
14,4:5
14,5:5
14,6:5
14,7:5
14,8:5
14,9:7
14,11:5
14,30:3
15,1:5
15,2:5
15,3:5
15,4:5
15,5:5
15,6:5
15,7:5
15,8:5
15,9:7
15,11:5
15,16:3
15,30:3
16,1:2
16,2:2
16,3:2
16,4:2
16,5:2
16,6:2
16,7:2
16,8:2
16,9:4
16,11:2
16,18:4
16,19:4
16,20:4
16,21:4
16,22:4
16,23:4
16,24:4
16,28:1
16,29:1
16,31:1
16,32:5
16,33:5
16,34:5
16,35:5
16,36:2
16,37:2
16,38:2
16,39:6
16,40:6
16,41:4
16,43:6
16,44:6
16,45:6
16,46:6
16,47:6
16,48:8
16,49:6
16,52:4
16,53:4
16,68:3
16,69:4
16,70:3
16,71:8
16,72:3
16,80:3
17,1:5
17,2:5
17,3:5
17,4:5
17,5:5
17,6:5
17,7:5
17,8:5
17,9:7
17,11:5
17,16:3
17,30:3
19,67:4
21,32:1
21,33:1
21,34:1
21,35:1
21,39:2
21,40:2
21,43:2
21,44:2
21,45:2
21,46:2
21,47:2
21,48:4
21,49:2
21,71:4
22,67:4
23,67:4
24,67:4
25,1:2
25,2:2
25,3:2
25,4:2
25,5:2
25,6:2
25,7:2
25,8:2
25,9:4
25,11:2
25,18:4
25,19:4
25,20:4
25,21:4
25,22:4
25,23:4
25,24:4
25,28:1
25,58:4
25,59:4
25,60:4
25,61:4
25,62:4
25,64:4
25,65:4
25,66:4
25,67:8
26,1:2
26,2:2
26,3:2
26,4:2
26,5:2
26,6:2
26,7:2
26,8:2
26,9:4
26,11:2
26,18:4
26,19:4
26,20:4
26,21:4
26,22:4
26,23:4
26,24:4
26,28:1
26,29:1
26,31:1
26,32:5
26,33:5
26,34:5
26,35:5
26,36:2
26,58:4
26,59:4
26,60:4
26,61:4
26,62:4
26,64:4
26,65:4
26,66:4
26,67:8
27,1:2
27,2:2
27,3:2
27,4:2
27,5:2
27,6:2
27,7:2
27,8:2
27,9:4
27,11:2
27,18:4
27,19:4
27,20:4
27,21:4
27,22:4
27,23:4
27,24:4
27,28:1
27,29:1
27,31:1
27,32:5
27,58:4
27,59:4
27,60:4
27,61:4
27,62:4
27,64:4
27,65:4
27,66:4
27,67:8
28,1:1
28,2:1
28,3:1
28,4:1
28,5:1
28,6:1
28,7:1
28,8:1
28,9:3
28,11:1
28,18:3
28,19:3
28,20:3
28,21:3
28,22:3
28,23:3
28,24:3
28,58:3
28,59:3
28,60:3
28,61:3
28,62:3
28,64:3
28,65:3
28,66:3
28,67:7
29,1:1
29,2:1
29,3:1
29,4:1
29,5:1
29,6:1
29,7:1
29,8:1
29,9:3
29,11:1
29,18:3
29,19:3
29,20:3
29,21:3
29,22:3
29,23:3
29,24:3
29,58:3
29,59:3
29,60:3
29,61:3
29,62:3
29,64:3
29,65:3
29,66:3
29,67:7
30,1:2
30,2:2
30,3:2
30,4:2
30,5:2
30,6:2
30,7:2
30,8:2
30,9:4
30,11:2
30,18:4
30,19:4
30,20:4
30,21:4
30,22:4
30,23:4
30,24:4
30,28:1
30,29:1
30,31:1
30,32:5
30,33:5
30,34:5
30,35:5
30,36:2
30,37:2
30,38:2
30,39:6
30,40:6
30,41:4
30,43:6
30,44:6
30,45:6
30,46:6
30,47:6
30,48:8
30,49:6
30,52:4
30,53:4
30,68:3
30,69:4
30,70:3
30,71:8
30,72:3
30,80:3
31,1:1
31,2:1
31,3:1
31,4:1
31,5:1
31,6:1
31,7:1
31,8:1
31,9:3
31,11:1
31,18:3
31,19:3
31,20:3
31,21:3
31,22:3
31,23:3
31,24:3
31,58:3
31,59:3
31,60:3
31,61:3
31,62:3
31,64:3
31,65:3
31,66:3
31,67:7
32,67:3
33,67:3
34,67:3
35,67:3
36,9:2
36,18:2
36,19:2
36,20:2
36,21:2
36,22:2
36,23:2
36,24:2
36,32:3
36,33:3
36,34:3
36,35:3
36,58:2
36,59:2
36,60:2
36,61:2
36,62:2
36,64:2
36,65:2
36,66:2
36,67:6
37,9:2
37,18:2
37,19:2
37,20:2
37,21:2
37,22:2
37,23:2
37,24:2
37,32:3
37,33:3
37,34:3
37,35:3
37,58:2
37,59:2
37,60:2
37,61:2
37,62:2
37,64:2
37,65:2
37,66:2
37,67:6
38,9:2
38,18:2
38,19:2
38,20:2
38,21:2
38,22:2
38,23:2
38,24:2
38,32:3
38,33:3
38,34:3
38,35:3
38,58:2
38,59:2
38,60:2
38,61:2
38,62:2
38,64:2
38,65:2
38,66:2
38,67:6
39,67:2
40,48:2
40,67:2
41,32:1
41,33:1
41,34:1
41,35:1
41,39:2
41,40:2
41,43:2
41,44:2
41,45:2
41,46:2
41,47:2
41,48:4
41,49:2
41,67:4
42,1:3
42,2:3
42,3:3
42,4:3
42,5:3
42,6:3
42,7:3
42,8:3
42,9:5
42,11:3
42,16:1
42,18:5
42,19:5
42,20:5
42,21:5
42,22:5
42,23:5
42,24:5
42,25:1
42,26:1
42,27:1
42,28:2
42,29:2
42,30:1
42,31:2
42,32:6
42,33:6
42,34:6
42,35:6
42,36:3
42,37:3
42,38:3
42,39:7
42,40:7
42,41:5
42,43:7
42,44:7
42,45:7
42,46:7
42,47:7
42,48:9
42,49:7
42,52:5
42,58:5
42,59:5
42,60:5
42,61:5
42,62:5
42,64:5
42,65:5
42,66:5
42,67:9
43,67:2
44,48:2
44,67:2
45,67:2
46,67:2
47,67:2
49,48:2
49,67:2
50,1:3
50,2:3
50,3:3
50,4:3
50,5:3
50,6:3
50,7:3
50,8:3
50,9:5
50,11:3
50,16:1
50,18:5
50,19:5
50,20:5
50,21:5
50,22:5
50,23:5
50,24:5
50,25:1
50,26:1
50,27:1
50,28:2
50,29:2
50,30:1
50,31:2
50,32:6
50,33:6
50,34:6
50,35:6
50,36:3
50,37:3
50,38:3
50,39:7
50,40:7
50,41:5
50,43:7
50,44:7
50,45:7
50,46:7
50,47:7
50,48:9
50,49:7
50,58:5
50,59:5
50,60:5
50,61:5
50,62:5
50,64:5
50,65:5
50,66:5
50,67:9
51,1:3
51,2:3
51,3:3
51,4:3
51,5:3
51,6:3
51,7:3
51,8:3
51,9:5
51,11:3
51,16:1
51,18:5
51,19:5
51,20:5
51,21:5
51,22:5
51,23:5
51,24:5
51,25:1
51,26:1
51,27:1
51,28:2
51,29:2
51,30:1
51,31:2
51,32:6
51,33:6
51,34:6
51,35:6
51,36:3
51,37:3
51,38:3
51,39:7
51,40:7
51,41:5
51,43:7
51,44:7
51,45:7
51,46:7
51,47:7
51,48:9
51,49:7
51,58:5
51,59:5
51,60:5
51,61:5
51,62:5
51,64:5
51,65:5
51,66:5
51,67:9
52,32:1
52,33:1
52,34:1
52,35:1
52,39:2
52,40:2
52,43:2
52,44:2
52,45:2
52,46:2
52,47:2
52,48:4
52,49:2
52,67:4
53,32:1
53,33:1
53,34:1
53,35:1
53,39:2
53,40:2
53,43:2
53,44:2
53,45:2
53,46:2
53,47:2
53,48:4
53,49:2
53,67:4
54,1:3
54,2:3
54,3:3
54,4:3
54,5:3
54,6:3
54,7:3
54,8:3
54,9:5
54,11:3
54,16:1
54,18:5
54,19:5
54,20:5
54,21:5
54,22:5
54,23:5
54,24:5
54,25:1
54,26:1
54,27:1
54,28:2
54,29:2
54,30:1
54,31:2
54,32:6
54,33:6
54,34:6
54,35:6
54,36:3
54,37:3
54,38:3
54,39:7
54,40:7
54,41:5
54,43:7
54,44:7
54,45:7
54,46:7
54,47:7
54,48:9
54,49:7
54,52:5
54,53:5
54,68:4
54,69:5
54,70:4
54,71:9
54,72:4
54,80:4
55,1:3
55,2:3
55,3:3
55,4:3
55,5:3
55,6:3
55,7:3
55,8:3
55,9:5
55,11:3
55,16:1
55,18:5
55,19:5
55,20:5
55,21:5
55,22:5
55,23:5
55,24:5
55,25:1
55,26:1
55,27:1
55,28:2
55,29:2
55,30:1
55,31:2
55,32:6
55,33:6
55,34:6
55,35:6
55,36:3
55,37:3
55,38:3
55,39:7
55,40:7
55,41:5
55,43:7
55,44:7
55,45:7
55,46:7
55,47:7
55,48:9
55,49:7
55,52:5
55,53:5
55,68:4
55,69:5
55,70:4
55,71:9
55,72:4
55,80:4
56,1:3
56,2:3
56,3:3
56,4:3
56,5:3
56,6:3
56,7:3
56,8:3
56,9:5
56,11:3
56,16:1
56,18:5
56,19:5
56,20:5
56,21:5
56,22:5
56,23:5
56,24:5
56,25:1
56,26:1
56,27:1
56,28:2
56,29:2
56,30:1
56,31:2
56,32:6
56,33:6
56,34:6
56,35:6
56,36:3
56,37:3
56,38:3
56,39:7
56,40:7
56,41:5
56,43:7
56,44:7
56,45:7
56,46:7
56,47:7
56,48:9
56,49:7
56,52:5
56,53:5
56,68:4
56,69:5
56,70:4
56,71:9
56,72:4
56,80:4
57,1:3
57,2:3
57,3:3
57,4:3
57,5:3
57,6:3
57,7:3
57,8:3
57,9:5
57,11:3
57,16:1
57,18:5
57,19:5
57,20:5
57,21:5
57,22:5
57,23:5
57,24:5
57,25:1
57,26:1
57,27:1
57,28:2
57,29:2
57,30:1
57,31:2
57,32:6
57,33:6
57,34:6
57,35:6
57,36:3
57,37:3
57,38:3
57,39:7
57,40:7
57,41:5
57,43:7
57,44:7
57,45:7
57,46:7
57,47:7
57,48:9
57,49:7
57,52:5
57,53:5
57,68:4
57,69:5
57,70:4
57,71:9
57,72:4
57,80:4
58,32:1
58,33:1
58,34:1
58,35:1
58,39:2
58,40:2
58,43:2
58,44:2
58,45:2
58,46:2
58,47:2
58,48:4
58,49:2
58,71:4
59,32:1
59,33:1
59,34:1
59,35:1
59,39:2
59,40:2
59,43:2
59,44:2
59,45:2
59,46:2
59,47:2
59,48:4
59,49:2
59,71:4
60,32:1
60,33:1
60,34:1
60,35:1
60,39:2
60,40:2
60,43:2
60,44:2
60,45:2
60,46:2
60,47:2
60,48:4
60,49:2
60,71:4
61,32:1
61,33:1
61,34:1
61,35:1
61,39:2
61,40:2
61,43:2
61,44:2
61,45:2
61,46:2
61,47:2
61,48:4
61,49:2
61,71:4
62,32:1
62,33:1
62,34:1
62,35:1
62,39:2
62,40:2
62,43:2
62,44:2
62,45:2
62,46:2
62,47:2
62,48:4
62,49:2
62,71:4
63,1:3
63,2:3
63,3:3
63,4:3
63,5:3
63,6:3
63,7:3
63,8:3
63,9:5
63,11:3
63,16:1
63,18:5
63,19:5
63,20:5
63,21:5
63,22:5
63,23:5
63,24:5
63,25:1
63,26:1
63,27:1
63,28:2
63,29:2
63,30:1
63,31:2
63,32:6
63,33:6
63,34:6
63,35:6
63,36:3
63,37:3
63,38:3
63,39:7
63,40:7
63,41:5
63,43:7
63,44:7
63,45:7
63,46:7
63,47:7
63,48:9
63,49:7
63,52:5
63,53:5
63,58:5
63,59:5
63,60:5
63,61:5
63,62:5
63,64:5
63,65:5
63,66:5
63,68:4
63,69:5
63,70:4
63,71:9
63,72:4
63,80:4
64,32:1
64,33:1
64,34:1
64,35:1
64,39:2
64,40:2
64,43:2
64,44:2
64,45:2
64,46:2
64,47:2
64,48:4
64,49:2
64,71:4
65,32:1
65,33:1
65,34:1
65,35:1
65,39:2
65,40:2
65,43:2
65,44:2
65,45:2
65,46:2
65,47:2
65,48:4
65,49:2
65,71:4
66,32:1
66,33:1
66,34:1
66,35:1
66,39:2
66,40:2
66,43:2
66,44:2
66,45:2
66,46:2
66,47:2
66,48:4
66,49:2
66,71:4
68,9:1
68,18:1
68,19:1
68,20:1
68,21:1
68,22:1
68,23:1
68,24:1
68,32:2
68,33:2
68,34:2
68,35:2
68,39:3
68,40:3
68,41:1
68,43:3
68,44:3
68,45:3
68,46:3
68,47:3
68,48:5
68,49:3
68,52:1
68,53:1
68,58:1
68,59:1
68,60:1
68,61:1
68,62:1
68,64:1
68,65:1
68,66:1
68,67:5
68,69:1
68,71:5
69,32:1
69,33:1
69,34:1
69,35:1
69,39:2
69,40:2
69,43:2
69,44:2
69,45:2
69,46:2
69,47:2
69,48:4
69,49:2
69,67:4
69,71:4
70,9:1
70,18:1
70,19:1
70,20:1
70,21:1
70,22:1
70,23:1
70,24:1
70,32:2
70,33:2
70,34:2
70,35:2
70,39:3
70,40:3
70,41:1
70,43:3
70,44:3
70,45:3
70,46:3
70,47:3
70,48:5
70,49:3
70,52:1
70,53:1
70,58:1
70,59:1
70,60:1
70,61:1
70,62:1
70,64:1
70,65:1
70,66:1
70,67:5
70,69:1
70,71:5
72,9:1
72,18:1
72,19:1
72,20:1
72,21:1
72,22:1
72,23:1
72,24:1
72,32:2
72,33:2
72,34:2
72,35:2
72,39:3
72,40:3
72,41:1
72,43:3
72,44:3
72,45:3
72,46:3
72,47:3
72,48:5
72,49:3
72,52:1
72,53:1
72,58:1
72,59:1
72,60:1
72,61:1
72,62:1
72,64:1
72,65:1
72,66:1
72,67:5
72,69:1
72,71:5
73,9:1
73,18:1
73,19:1
73,20:1
73,21:1
73,22:1
73,23:1
73,24:1
73,32:2
73,33:2
73,34:2
73,35:2
73,39:3
73,40:3
73,41:1
73,43:3
73,44:3
73,45:3
73,46:3
73,47:3
73,48:5
73,49:3
73,52:1
73,53:1
73,58:1
73,59:1
73,60:1
73,61:1
73,62:1
73,64:1
73,65:1
73,66:1
73,67:5
73,69:1
73,71:5
74,9:1
74,18:1
74,19:1
74,20:1
74,21:1
74,22:1
74,23:1
74,24:1
74,32:2
74,33:2
74,34:2
74,35:2
74,39:3
74,40:3
74,41:1
74,43:3
74,44:3
74,45:3
74,46:3
74,47:3
74,48:5
74,49:3
74,52:1
74,53:1
74,58:1
74,59:1
74,60:1
74,61:1
74,62:1
74,64:1
74,65:1
74,66:1
74,67:5
74,69:1
74,71:5
75,9:1
75,18:1
75,19:1
75,20:1
75,21:1
75,22:1
75,23:1
75,24:1
75,32:2
75,33:2
75,34:2
75,35:2
75,39:3
75,40:3
75,41:1
75,43:3
75,44:3
75,45:3
75,46:3
75,47:3
75,48:5
75,49:3
75,52:1
75,53:1
75,58:1
75,59:1
75,60:1
75,61:1
75,62:1
75,64:1
75,65:1
75,66:1
75,67:5
75,69:1
75,71:5
76,9:1
76,18:1
76,19:1
76,20:1
76,21:1
76,22:1
76,23:1
76,24:1
76,32:2
76,33:2
76,34:2
76,35:2
76,39:3
76,40:3
76,41:1
76,43:3
76,44:3
76,45:3
76,46:3
76,47:3
76,48:5
76,49:3
76,52:1
76,53:1
76,58:1
76,59:1
76,60:1
76,61:1
76,62:1
76,64:1
76,65:1
76,66:1
76,67:5
76,69:1
76,71:5
77,1:2
77,2:2
77,3:2
77,4:2
77,5:2
77,6:2
77,7:2
77,8:2
77,9:4
77,11:2
77,18:4
77,19:4
77,20:4
77,21:4
77,22:4
77,23:4
77,24:4
77,28:1
77,29:1
77,31:1
77,32:5
77,33:5
77,34:5
77,35:5
77,36:2
77,37:2
77,38:2
77,39:6
77,40:6
77,41:4
77,43:6
77,44:6
77,45:6
77,46:6
77,47:6
77,48:8
77,49:6
77,52:4
77,53:4
77,58:4
77,59:4
77,60:4
77,61:4
77,62:4
77,64:4
77,65:4
77,66:4
77,67:8
77,68:3
77,69:4
77,70:3
77,71:8
77,72:3
77,73:3
77,74:3
77,75:3
77,76:3
77,80:3
78,1:2
78,2:2
78,3:2
78,4:2
78,5:2
78,6:2
78,7:2
78,8:2
78,9:4
78,11:2
78,18:4
78,19:4
78,20:4
78,21:4
78,22:4
78,23:4
78,24:4
78,28:1
78,29:1
78,31:1
78,32:5
78,33:5
78,34:5
78,35:5
78,36:2
78,37:2
78,38:2
78,39:6
78,40:6
78,41:4
78,43:6
78,44:6
78,45:6
78,46:6
78,47:6
78,48:8
78,49:6
78,52:4
78,53:4
78,58:4
78,59:4
78,60:4
78,61:4
78,62:4
78,64:4
78,65:4
78,66:4
78,67:8
78,68:3
78,69:4
78,70:3
78,71:8
78,72:3
78,73:3
78,74:3
78,75:3
78,76:3
78,80:3
79,1:2
79,2:2
79,3:2
79,4:2
79,5:2
79,6:2
79,7:2
79,8:2
79,9:4
79,11:2
79,18:4
79,19:4
79,20:4
79,21:4
79,22:4
79,23:4
79,24:4
79,28:1
79,29:1
79,31:1
79,32:5
79,33:5
79,34:5
79,35:5
79,36:2
79,37:2
79,38:2
79,39:6
79,40:6
79,41:4
79,43:6
79,44:6
79,45:6
79,46:6
79,47:6
79,48:8
79,49:6
79,52:4
79,53:4
79,58:4
79,59:4
79,60:4
79,61:4
79,62:4
79,64:4
79,65:4
79,66:4
79,67:8
79,68:3
79,69:4
79,70:3
79,71:8
79,72:3
79,73:3
79,74:3
79,75:3
79,76:3
79,80:3
80,9:1
80,18:1
80,19:1
80,20:1
80,21:1
80,22:1
80,23:1
80,24:1
80,32:2
80,33:2
80,34:2
80,35:2
80,39:3
80,40:3
80,41:1
80,43:3
80,44:3
80,45:3
80,46:3
80,47:3
80,48:5
80,49:3
80,52:1
80,53:1
80,58:1
80,59:1
80,60:1
80,61:1
80,62:1
80,64:1
80,65:1
80,66:1
80,67:5
80,69:1
80,71:5
81,1:2
81,2:2
81,3:2
81,4:2
81,5:2
81,6:2
81,7:2
81,8:2
81,9:4
81,11:2
81,18:4
81,19:4
81,20:4
81,21:4
81,22:4
81,23:4
81,24:4
81,28:1
81,29:1
81,31:1
81,32:5
81,33:5
81,34:5
81,35:5
81,36:2
81,37:2
81,38:2
81,39:6
81,40:6
81,41:4
81,43:6
81,44:6
81,45:6
81,46:6
81,47:6
81,48:8
81,49:6
81,52:4
81,53:4
81,58:4
81,59:4
81,60:4
81,61:4
81,62:4
81,64:4
81,65:4
81,66:4
81,67:8
81,68:3
81,69:4
81,70:3
81,71:8
81,72:3
81,73:3
81,74:3
81,75:3
81,76:3
81,80:3
82,1:4
82,2:4
82,3:4
82,4:4
82,5:4
82,6:4
82,7:4
82,8:4
82,9:6
82,11:4
82,16:2
82,18:6
82,19:6
82,20:6
82,21:6
82,22:6
82,23:6
82,24:6
82,25:2
82,26:2
82,27:2
82,28:3
82,29:3
82,30:2
82,31:3
82,32:7
82,33:7
82,34:7
82,35:7
82,36:4
82,37:4
82,38:4
82,39:8
82,40:8
82,41:6
82,42:1
82,43:8
82,44:8
82,45:8
82,46:8
82,47:8
82,48:10
82,49:8
82,50:1
82,51:1
82,52:6
82,53:6
82,54:1
82,55:1
82,56:1
82,57:1
82,58:6
82,59:6
82,60:6
82,61:6
82,62:6
82,63:1
82,64:6
82,65:6
82,66:6
82,67:10
82,68:5
82,69:6
82,70:5
82,71:10
82,72:5
82,73:5
82,74:5
82,75:5
82,76:5
82,77:2
82,78:2
82,79:2
82,80:5
82,81:2
82,84:2
83,1:4
83,2:4
83,3:4
83,4:4
83,5:4
83,6:4
83,7:4
83,8:4
83,9:6
83,11:4
83,16:2
83,18:6
83,19:6
83,20:6
83,21:6
83,22:6
83,23:6
83,24:6
83,25:2
83,26:2
83,27:2
83,28:3
83,29:3
83,30:2
83,31:3
83,32:7
83,33:7
83,34:7
83,35:7
83,36:4
83,37:4
83,38:4
83,39:8
83,40:8
83,41:6
83,42:1
83,43:8
83,44:8
83,45:8
83,46:8
83,47:8
83,48:10
83,49:8
83,50:1
83,51:1
83,52:6
83,53:6
83,54:1
83,55:1
83,56:1
83,57:1
83,58:6
83,59:6
83,60:6
83,61:6
83,62:6
83,63:1
83,64:6
83,65:6
83,66:6
83,67:10
83,68:5
83,69:6
83,70:5
83,71:10
83,72:5
83,73:5
83,74:5
83,75:5
83,76:5
83,77:2
83,78:2
83,79:2
83,80:5
83,81:2
83,84:2
84,1:2
84,2:2
84,3:2
84,4:2
84,5:2
84,6:2
84,7:2
84,8:2
84,9:4
84,11:2
84,18:4
84,19:4
84,20:4
84,21:4
84,22:4
84,23:4
84,24:4
84,28:1
84,29:1
84,31:1
84,32:5
84,33:5
84,34:5
84,35:5
84,36:2
84,37:2
84,38:2
84,39:6
84,40:6
84,41:4
84,43:6
84,44:6
84,45:6
84,46:6
84,47:6
84,48:8
84,49:6
84,52:4
84,53:4
84,58:4
84,59:4
84,60:4
84,61:4
84,62:4
84,64:4
84,65:4
84,66:4
84,67:8
84,68:3
84,69:4
84,70:3
84,71:8
84,72:3
84,73:3
84,74:3
84,75:3
84,76:3
84,80:3
85,1:4
85,2:4
85,3:4
85,4:4
85,5:4
85,6:4
85,7:4
85,8:4
85,9:6
85,11:4
85,16:2
85,18:6
85,19:6
85,20:6
85,21:6
85,22:6
85,23:6
85,24:6
85,25:2
85,26:2
85,27:2
85,28:3
85,29:3
85,30:2
85,31:3
85,32:7
85,33:7
85,34:7
85,35:7
85,36:4
85,37:4
85,38:4
85,39:8
85,40:8
85,41:6
85,42:1
85,43:8
85,44:8
85,45:8
85,46:8
85,47:8
85,48:10
85,49:8
85,50:1
85,51:1
85,52:6
85,53:6
85,54:1
85,55:1
85,56:1
85,57:1
85,58:6
85,59:6
85,60:6
85,61:6
85,62:6
85,63:1
85,64:6
85,65:6
85,66:6
85,67:10
85,68:5
85,69:6
85,70:5
85,71:10
85,72:5
85,73:5
85,74:5
85,75:5
85,76:5
85,77:2
85,78:2
85,79:2
85,80:5
85,81:2
85,84:2
86,1:4
86,2:4
86,3:4
86,4:4
86,5:4
86,6:4
86,7:4
86,8:4
86,9:6
86,11:4
86,16:2
86,18:6
86,19:6
86,20:6
86,21:6
86,22:6
86,23:6
86,24:6
86,25:2
86,26:2
86,27:2
86,28:3
86,29:3
86,30:2
86,31:3
86,32:7
86,33:7
86,34:7
86,35:7
86,36:4
86,37:4
86,38:4
86,39:8
86,40:8
86,41:6
86,42:1
86,43:8
86,44:8
86,45:8
86,46:8
86,47:8
86,48:10
86,49:8
86,50:1
86,51:1
86,52:6
86,53:6
86,54:1
86,55:1
86,56:1
86,57:1
86,58:6
86,59:6
86,60:6
86,61:6
86,62:6
86,63:1
86,64:6
86,65:6
86,66:6
86,67:10
86,68:5
86,69:6
86,70:5
86,71:10
86,72:5
86,73:5
86,74:5
86,75:5
86,76:5
86,77:2
86,78:2
86,79:2
86,80:5
86,81:2
86,84:2
87,1:4
87,2:4
87,3:4
87,4:4
87,5:4
87,6:4
87,7:4
87,8:4
87,9:6
87,11:4
87,16:2
87,18:6
87,19:6
87,20:6
87,21:6
87,22:6
87,23:6
87,24:6
87,25:2
87,26:2
87,27:2
87,28:3
87,29:3
87,30:2
87,31:3
87,32:7
87,33:7
87,34:7
87,35:7
87,36:4
87,37:4
87,38:4
87,39:8
87,40:8
87,41:6
87,42:1
87,43:8
87,44:8
87,45:8
87,46:8
87,47:8
87,48:10
87,49:8
87,50:1
87,51:1
87,52:6
87,53:6
87,54:1
87,55:1
87,56:1
87,57:1
87,58:6
87,59:6
87,60:6
87,61:6
87,62:6
87,63:1
87,64:6
87,65:6
87,66:6
87,67:10
87,68:5
87,69:6
87,70:5
87,71:10
87,72:5
87,73:5
87,74:5
87,75:5
87,76:5
87,77:2
87,78:2
87,79:2
87,80:5
87,81:2
87,84:2
88,1:4
88,2:4
88,3:4
88,4:4
88,5:4
88,6:4
88,7:4
88,8:4
88,9:6
88,11:4
88,16:2
88,18:6
88,19:6
88,20:6
88,21:6
88,22:6
88,23:6
88,24:6
88,25:2
88,26:2
88,27:2
88,28:3
88,29:3
88,30:2
88,31:3
88,32:7
88,33:7
88,34:7
88,35:7
88,36:4
88,37:4
88,38:4
88,39:8
88,40:8
88,41:6
88,42:1
88,43:8
88,44:8
88,45:8
88,46:8
88,47:8
88,48:10
88,49:8
88,50:1
88,51:1
88,52:6
88,53:6
88,54:1
88,55:1
88,56:1
88,57:1
88,58:6
88,59:6
88,60:6
88,61:6
88,62:6
88,63:1
88,64:6
88,65:6
88,66:6
88,67:10
88,68:5
88,69:6
88,70:5
88,71:10
88,72:5
88,73:5
88,74:5
88,75:5
88,76:5
88,77:2
88,78:2
88,79:2
88,80:5
88,81:2
88,84:2
89,1:4
89,2:4
89,3:4
89,4:4
89,5:4
89,6:4
89,7:4
89,8:4
89,9:6
89,11:4
89,16:2
89,18:6
89,19:6
89,20:6
89,21:6
89,22:6
89,23:6
89,24:6
89,25:2
89,26:2
89,27:2
89,28:3
89,29:3
89,30:2
89,31:3
89,32:7
89,33:7
89,34:7
89,35:7
89,36:4
89,37:4
89,38:4
89,39:8
89,40:8
89,41:6
89,42:1
89,43:8
89,44:8
89,45:8
89,46:8
89,47:8
89,48:10
89,49:8
89,50:1
89,51:1
89,52:6
89,53:6
89,54:1
89,55:1
89,56:1
89,57:1
89,58:6
89,59:6
89,60:6
89,61:6
89,62:6
89,63:1
89,64:6
89,65:6
89,66:6
89,67:10
89,68:5
89,69:6
89,70:5
89,71:10
89,72:5
89,73:5
89,74:5
89,75:5
89,76:5
89,77:2
89,78:2
89,79:2
89,80:5
89,81:2
89,84:2

<end>

<optimal SALBP-1 value>
14


<rand seed>
467321153

<Lower Bounds>
Lm1=13
Lms1=13
Lm2=2
Lm3=2
Lm4=13
Best=13

<Optimal Stations (Iterations: 10)>
16
